Route #1: 27 16 52 1 15 7 46 28
Route #2: 25 53 6 24 37 45
Route #3: 41 29 42 47 39 4 26 21 35
Route #4: 40 5 12 9 38 22 50 23
Route #5: 43 14 51 44 17 8 10 18 19
Route #6: 2 34 30 54 31 20 55 11 33 49 13
Route #7: 3 36 32 48
Cost 752